\ LP format - for model browsing. Use MPS format to capture full model detail.
Minimize
  Cost + Theta
Subject To
 R0: v[0] - w[0] - u[0] + aux_u[0] = 0
 R1: v[1] - w[1] - u[1] + aux_u[1] = 0
 R2: v[2] - w[2] - u[2] + aux_u[2] = 0
 R3: v[3] - w[3] - u[3] + aux_u[3] = 0
 ztv106: aux_v[6] = 0
 ztv105: aux_v[5] = 0
 ztv104: aux_v[4] = 0
 ztv103: aux_v[3] = 0
 ztv102: aux_v[2] = 0
 ztv101: aux_v[1] = 0.00356056114682401
 ztv100: aux_v[0] = 0
 R11: v[0] - u[0] + aux_v[0] + aux_v[1] + aux_v[2] + aux_v[3] + aux_v[4]
   + aux_v[5] + aux_v[6] <= 0
 ztu0: aux_u[0] = 0.066
 ztu1: aux_u[1] = 0
 ztu2: aux_u[2] = 0
 ztu3: aux_u[3] = 0
 R16: v[1] - u[1] <= 0
 R17: v[2] - u[2] <= 0
 R18: v[3] - u[3] <= 0
 R19: w[0] + u[0] <= 1
 R20: w[1] + u[1] <= 1
 R21: w[2] + u[2] <= 1
 R22: w[3] + u[3] <= 1
 R23: gt[0] - 70 u[0] >= 0
 R24: gt[1] - 40 u[1] >= 0
 R25: gt[2] - 30 u[2] >= 0
 R26: gt[3] - 30 u[3] >= 0
 R27: gt[0] - 500 u[0] <= 0
 R28: gt[1] - 250 u[1] <= 0
 R29: gt[2] - 150 u[2] <= 0
 R30: gt[3] - 150 u[3] <= 0
 R31: gt[0] + gt[1] + gt[2] + gt[3] + gh + def - def = 638
 R32: - 9.95 gt[0] - 10.2 gt[1] - 11 gt[2] - 11 gt[3] - 800 v[0] - 380 v[1]
   - 110 v[2] - 110 v[3] - 300 u[0] - 210 u[1] - 120 u[2] - 120 u[3]
   - alpha - 60 def - 60 def + Cost = 0
 R33: 380 u[1] + 110 u[2] + 110 u[3] + Theta - 300 aux_v[1] >= 1253.7
 R34: 916.3008824366636 u[0] + 380 u[1] + 110 u[2] + 110 u[3] + Theta
   >= 1560.207822374039
 R35: 940.1118718669768 u[0] + 380 u[1] + 110 u[2] + 110 u[3] + Theta
   >= 1566.208191710478
 R36: 940.1118718669768 u[0] + 380 u[1] + 110 u[2] + 110 u[3] + Theta
   >= 1566.208191710478
 R37: 991.666666666667 u[0] + 380 u[1] + 110 u[2] + 110 u[3] + Theta
   >= 1579.2
 R38: 991.666666666667 u[0] + 380 u[1] + 110 u[2] + 110 u[3] + Theta
   - 996.5 aux_v[2] - 996.5 aux_v[3] >= 1579.2
 R39: 991.666666666667 u[0] + 380 u[1] + 110 u[2] + 110 u[3] + Theta
   - 996.5 aux_v[2] - 996.5 aux_v[3] >= 1579.2
 R40: 991.666666666667 u[0] + 380 u[1] + 110 u[2] + 110 u[3] + Theta
   - 996.5 aux_v[2] - 996.5 aux_v[3] >= 1579.2
 R41: 991.666666666667 u[0] + 380 u[1] + 110 u[2] + 110 u[3] + Theta
   - 996.5 aux_v[2] - 996.5 aux_v[3] - 996.5 aux_v[5] >= 1579.2
 R42: 991.666666666667 u[0] + 380 u[1] + 110 u[2] + 110 u[3] + Theta
   - 996.5 aux_v[2] - 996.5 aux_v[3] - 996.5 aux_v[5] >= 1579.2
 R43: 991.666666666667 u[0] + 380 u[1] + 110 u[2] + 110 u[3] + Theta
   - 996.5 aux_v[2] - 996.5 aux_v[3] - 996.5 aux_v[5] >= 1579.2
Bounds
 v[0] <= 1
 v[1] <= 1
 v[2] <= 1
 v[3] <= 1
 w[0] <= 1
 w[1] <= 1
 w[2] <= 1
 w[3] <= 1
 u[0] <= 1
 u[1] <= 1
 u[2] <= 1
 u[3] <= 1
 gh <= 750
 def <= 100
 def <= 100
 aux_u[0] <= 1
 aux_u[1] <= 1
 aux_u[2] <= 1
 aux_u[3] <= 1
 aux_v[0] <= 1
 aux_v[1] <= 1
 aux_v[2] <= 1
 aux_v[3] <= 1
 aux_v[4] <= 1
 aux_v[5] <= 1
 aux_v[6] <= 1
End
